p cnf 28 50
-1 -2 3 0
-3 -4 5 0
-5 -6 7 0
-1 2 8 0
-3 4 9 0
-5 6 10 0
-11 -12 13 0
-8 -14 15 0
-9 -16 17 0
-11 12 18 0
-8 14 19 0
-9 16 20 0
-21 -22 13 0
-13 -23 15 0
-15 -24 17 0
-21 22 18 0
-13 23 19 0
-15 24 20 0
-25 -26 13 0
-18 -27 15 0
-19 -28 17 0
-25 26 3 0
-18 27 5 0
-19 28 7 0
1 0
25 18 19 20 0
-1 -11 0
-1 -21 0
-1 -25 0
-11 -21 0
-11 -25 0
-21 -25 0
-3 -8 0
-3 -13 0
-3 -18 0
-8 -13 0
-8 -18 0
-13 -18 0
-5 -9 0
-5 -15 0
-5 -19 0
-9 -15 0
-9 -19 0
-15 -19 0
-7 -10 0
-7 -17 0
-7 -20 0
-10 -17 0
-10 -20 0
-17 -20 0
c p weight 2 0.6 0
c p weight 4 0.6 0
c p weight 6 0.6 0
c p weight -2 0.4 0
c p weight -4 0.4 0
c p weight -6 0.4 0
c p weight 12 0.5 0
c p weight 14 0.5 0
c p weight 16 0.5 0
c p weight -12 0.5 0
c p weight -14 0.5 0
c p weight -16 0.5 0
c p weight 22 0.5 0
c p weight 23 0.5 0
c p weight 24 0.5 0
c p weight -22 0.5 0
c p weight -23 0.5 0
c p weight -24 0.5 0
c p weight 26 0.4 0
c p weight 27 0.4 0
c p weight 28 0.4 0
c p weight -26 0.6 0
c p weight -27 0.6 0
c p weight -28 0.6 0
